(declare-const x0 Real)
(assert (<= (- 0.500000) x0))
(declare-const x1 Real)
(assert (<= 1.500000 x1))
(declare-const x2 Real)
(assert (<= (- 2.0) x2))
(declare-const x3 Real)
(assert (<= 0.001000 x3))
(declare-const x4 Real)
(assert (<= 0.001000 x4))


(minimize
	(+ (^ (- 0.844000 (+ x0 x1 x2)) 2.0) (^ (- 0.908000 (+ x0 (* x1 (exp (- (* 10.0 x3)))) (* x2 (exp (- (* 10.0 x4)))))) 2.0) (^ (- 0.932000 (+ x0 (* x1 (exp (- (* 20.0 x3)))) (* x2 (exp (- (* 20.0 x4)))))) 2.0) (^ (- 0.936000 (+ x0 (* x1 (exp (- (* 30.0 x3)))) (* x2 (exp (- (* 30.0 x4)))))) 2.0) (^ (- 0.925000 (+ x0 (* x1 (exp (- (* 40.0 x3)))) (* x2 (exp (- (* 40.0 x4)))))) 2.0) (^ (- 0.908000 (+ x0 (* x1 (exp (- (* 50.0 x3)))) (* x2 (exp (- (* 50.0 x4)))))) 2.0) (^ (- 0.881000 (+ x0 (* x1 (exp (- (* 60.0 x3)))) (* x2 (exp (- (* 60.0 x4)))))) 2.0) (^ (- 0.850000 (+ x0 (* x1 (exp (- (* 70.0 x3)))) (* x2 (exp (- (* 70.0 x4)))))) 2.0) (^ (- 0.818000 (+ x0 (* x1 (exp (- (* 80.0 x3)))) (* x2 (exp (- (* 80.0 x4)))))) 2.0) (^ (- 0.784000 (+ x0 (* x1 (exp (- (* 90.0 x3)))) (* x2 (exp (- (* 90.0 x4)))))) 2.0) (^ (- 0.751000 (+ x0 (* x1 (exp (- (* 100.0 x3)))) (* x2 (exp (- (* 100.0 x4)))))) 2.0) (^ (- 0.718000 (+ x0 (* x1 (exp (- (* 110.0 x3)))) (* x2 (exp (- (* 110.0 x4)))))) 2.0) (^ (- 0.685000 (+ x0 (* x1 (exp (- (* 120.0 x3)))) (* x2 (exp (- (* 120.0 x4)))))) 2.0) (^ (- 0.658000 (+ x0 (* x1 (exp (- (* 130.0 x3)))) (* x2 (exp (- (* 130.0 x4)))))) 2.0) (^ (- 0.628000 (+ x0 (* x1 (exp (- (* 140.0 x3)))) (* x2 (exp (- (* 140.0 x4)))))) 2.0) (^ (- 0.603000 (+ x0 (* x1 (exp (- (* 150.0 x3)))) (* x2 (exp (- (* 150.0 x4)))))) 2.0) (^ (- 0.580000 (+ x0 (* x1 (exp (- (* 160.0 x3)))) (* x2 (exp (- (* 160.0 x4)))))) 2.0) (^ (- 0.558000 (+ x0 (* x1 (exp (- (* 170.0 x3)))) (* x2 (exp (- (* 170.0 x4)))))) 2.0) (^ (- 0.538000 (+ x0 (* x1 (exp (- (* 180.0 x3)))) (* x2 (exp (- (* 180.0 x4)))))) 2.0) (^ (- 0.522000 (+ x0 (* x1 (exp (- (* 190.0 x3)))) (* x2 (exp (- (* 190.0 x4)))))) 2.0) (^ (- 0.506000 (+ x0 (* x1 (exp (- (* 200.0 x3)))) (* x2 (exp (- (* 200.0 x4)))))) 2.0) (^ (- 0.490000 (+ x0 (* x1 (exp (- (* 210.0 x3)))) (* x2 (exp (- (* 210.0 x4)))))) 2.0) (^ (- 0.478000 (+ x0 (* x1 (exp (- (* 220.0 x3)))) (* x2 (exp (- (* 220.0 x4)))))) 2.0) (^ (- 0.467000 (+ x0 (* x1 (exp (- (* 230.0 x3)))) (* x2 (exp (- (* 230.0 x4)))))) 2.0) (^ (- 0.457000 (+ x0 (* x1 (exp (- (* 240.0 x3)))) (* x2 (exp (- (* 240.0 x4)))))) 2.0) (^ (- 0.448000 (+ x0 (* x1 (exp (- (* 250.0 x3)))) (* x2 (exp (- (* 250.0 x4)))))) 2.0) (^ (- 0.438000 (+ x0 (* x1 (exp (- (* 260.0 x3)))) (* x2 (exp (- (* 260.0 x4)))))) 2.0) (^ (- 0.431000 (+ x0 (* x1 (exp (- (* 270.0 x3)))) (* x2 (exp (- (* 270.0 x4)))))) 2.0) (^ (- 0.424000 (+ x0 (* x1 (exp (- (* 280.0 x3)))) (* x2 (exp (- (* 280.0 x4)))))) 2.0) (^ (- 0.420000 (+ x0 (* x1 (exp (- (* 290.0 x3)))) (* x2 (exp (- (* 290.0 x4)))))) 2.0) (^ (- 0.414000 (+ x0 (* x1 (exp (- (* 300.0 x3)))) (* x2 (exp (- (* 300.0 x4)))))) 2.0) (^ (- 0.411000 (+ x0 (* x1 (exp (- (* 310.0 x3)))) (* x2 (exp (- (* 310.0 x4)))))) 2.0) (^ (- 0.406000 (+ x0 (* x1 (exp (- (* 320.0 x3)))) (* x2 (exp (- (* 320.0 x4)))))) 2.0))
)
(check-sat)
(get-objectives)
(exit)

